\ENCODING=ISO-8859-1
\Problem name: ilog.cplex

Minimize
 obj: 0.013816 x1 + 0.013816 x2 + 0.013816 x3 + 0.013816 x4 + 0.012502 x5
      + 0.012502 x6 + 0.012502 x7 + 0.012502 x8 + 0.012107 x9 + 0.012107 x10
      + 0.012107 x11 + 0.012107 x12 + 0.011823 x13 + 0.011823 x14
      + 0.011823 x15 + 0.011823 x16 + 0.011283 x17 + 0.011283 x18
      + 0.011283 x19 + 0.011283 x20 + 0.01086 x21 + 0.01086 x22 + 0.01086 x23
      + 0.01086 x24 + 0.018662 x25 + 0.018662 x26 + 0.017315 x27 + 0.017315 x28
      + 0.01831 x29 + 0.016634 x30 + 0.014395 x31 + 0.014395 x32 + 0.015655 x33
      + 0.015655 x34 + 0.015655 x35 + 0.015655 x36 + 0.017466 x37
      + 0.017466 x38 + 0.017466 x39 + 0.017466 x40 + 0.017779 x41
      + 0.017779 x42 + 0.017779 x43 + 0.017779 x44 + 0.018249 x45
      + 0.018249 x46 + 0.018249 x47 + 0.018249 x48 + 0.018369 x49
      + 0.018369 x50 + 0.018369 x51 + 0.018369 x52 + 0.016252 x53
      + 0.016252 x54 + 0.016252 x55 + 0.016252 x56 + 0.015584 x57
      + 0.015584 x58 + 0.015584 x59 + 0.015584 x60 + 0.015571 x61
      + 0.015571 x62 + 0.015571 x63 + 0.015571 x64 + 0.016851 x65
      + 0.018883 x66 + 0.02038 x67 + 0.02038 x68 + 0.024496 x69 + 0.024496 x70
      + 0.025285 x71 + 0.025285 x72 + 0.026191 x73 + 0.026191 x74
      + 0.026191 x75 + 0.026191 x76 + 0.024672 x77 + 0.024672 x78
      + 0.024672 x79 + 0.024672 x80 + 0.021747 x81 + 0.021747 x82
      + 0.021747 x83 + 0.021747 x84 + 0.020447 x85 + 0.013267 x86
      + 0.013267 x87 + 0.013267 x88 + 0.013871 x89 + 0.013871 x90
      + 0.013871 x91 + 0.013871 x92 + 0.013453 x93 + 0.013453 x94
      + 0.013453 x95 + 0.013453 x96 + x97 + [ 0.035 x1 ^2 + 0.035 x2 ^2
      + 0.035 x3 ^2 + 0.035 x4 ^2 + 0.035 x5 ^2 + 0.035 x6 ^2 + 0.035 x7 ^2
      + 0.035 x8 ^2 + 0.035 x9 ^2 + 0.035 x10 ^2 + 0.035 x11 ^2 + 0.035 x12 ^2
      + 0.035 x13 ^2 + 0.035 x14 ^2 + 0.035 x15 ^2 + 0.035 x16 ^2
      + 0.035 x17 ^2 + 0.035 x18 ^2 + 0.035 x19 ^2 + 0.035 x20 ^2
      + 0.035 x21 ^2 + 0.035 x22 ^2 + 0.035 x23 ^2 + 0.035 x24 ^2
      + 0.035 x25 ^2 + 0.035 x26 ^2 + 0.035 x27 ^2 + 0.035 x28 ^2
      + 0.035 x29 ^2 + 0.035 x30 ^2 + 0.035 x31 ^2 + 0.035 x32 ^2
      + 0.035 x33 ^2 + 0.035 x34 ^2 + 0.035 x35 ^2 + 0.035 x36 ^2
      + 0.035 x37 ^2 + 0.035 x38 ^2 + 0.035 x39 ^2 + 0.035 x40 ^2
      + 0.035 x41 ^2 + 0.035 x42 ^2 + 0.035 x43 ^2 + 0.035 x44 ^2
      + 0.035 x45 ^2 + 0.035 x46 ^2 + 0.035 x47 ^2 + 0.035 x48 ^2
      + 0.035 x49 ^2 + 0.035 x50 ^2 + 0.035 x51 ^2 + 0.035 x52 ^2
      + 0.035 x53 ^2 + 0.035 x54 ^2 + 0.035 x55 ^2 + 0.035 x56 ^2
      + 0.035 x57 ^2 + 0.035 x58 ^2 + 0.035 x59 ^2 + 0.035 x60 ^2
      + 0.035 x61 ^2 + 0.035 x62 ^2 + 0.035 x63 ^2 + 0.035 x64 ^2
      + 0.035 x65 ^2 + 0.035 x66 ^2 + 0.035 x67 ^2 + 0.035 x68 ^2
      + 0.035 x69 ^2 + 0.035 x70 ^2 + 0.035 x71 ^2 + 0.035 x72 ^2
      + 0.035 x73 ^2 + 0.035 x74 ^2 + 0.035 x75 ^2 + 0.035 x76 ^2
      + 0.035 x77 ^2 + 0.035 x78 ^2 + 0.035 x79 ^2 + 0.035 x80 ^2
      + 0.035 x81 ^2 + 0.035 x82 ^2 + 0.035 x83 ^2 + 0.035 x84 ^2
      + 0.035 x85 ^2 + 0.035 x86 ^2 + 0.035 x87 ^2 + 0.035 x88 ^2
      + 0.035 x89 ^2 + 0.035 x90 ^2 + 0.035 x91 ^2 + 0.035 x92 ^2
      + 0.035 x93 ^2 + 0.035 x94 ^2 + 0.035 x95 ^2 + 0.035 x96 ^2 ] / 2
Subject To
 c1:   x1 <= 4
 c3:   x1 >= -4
 c5:   x2 <= 4
 c7:   x2 >= -4
 c9:   x3 <= 4
 c11:  x3 >= -4
 c13:  x4 <= 4
 c15:  x4 >= -4
 c17:  x5 <= 4
 c19:  x5 >= -4
 c21:  x6 <= 4
 c23:  x6 >= -4
 c25:  x7 <= 4
 c27:  x7 >= -4
 c29:  x8 <= 4
 c31:  x8 >= -4
 c33:  x9 <= 4
 c35:  x9 >= -4
 c37:  x10 <= 4
 c39:  x10 >= -4
 c41:  x11 <= 4
 c43:  x11 >= -4
 c45:  x12 <= 4
 c47:  x12 >= -4
 c49:  x13 <= 4
 c51:  x13 >= -4
 c53:  x14 <= 4
 c55:  x14 >= -4
 c57:  x15 <= 4
 c59:  x15 >= -4
 c61:  x16 <= 4
 c63:  x16 >= -4
 c65:  x17 <= 4
 c67:  x17 >= -4
 c69:  x18 <= 4
 c71:  x18 >= -4
 c73:  x19 <= 4
 c75:  x19 >= -4
 c77:  x20 <= 4
 c79:  x20 >= -4
 c81:  x21 <= 4
 c83:  x21 >= -4
 c85:  x22 <= 4
 c87:  x22 >= -4
 c89:  x23 <= 4
 c91:  x23 >= -4
 c93:  x24 <= 4
 c95:  x24 >= -4
 c97:  x25 <= 0
 c99:  x25 >= 0
 c101: x26 <= 0
 c103: x26 >= 0
 c105: x27 <= 0
 c107: x27 >= 0
 c109: x28 <= 0
 c111: x28 >= 0
 c113: x29 <= 0
 c115: x29 >= 0
 c117: x30 <= 0
 c119: x30 >= 0
 c121: x31 <= 0
 c123: x31 >= 0
 c125: x32 <= 0
 c127: x32 >= 0
 c129: x33 <= 0
 c131: x33 >= 0
 c133: x34 <= 0
 c135: x34 >= 0
 c137: x35 <= 0
 c139: x35 >= 0
 c141: x36 <= 0
 c143: x36 >= 0
 c145: x37 <= 0
 c147: x37 >= 0
 c149: x38 <= 0
 c151: x38 >= 0
 c153: x39 <= 0
 c155: x39 >= 0
 c157: x40 <= 0
 c159: x40 >= 0
 c161: x41 <= 0
 c163: x41 >= 0
 c165: x42 <= 0
 c167: x42 >= 0
 c169: x43 <= 0
 c171: x43 >= 0
 c173: x44 <= 0
 c175: x44 >= 0
 c177: x45 <= 0
 c179: x45 >= 0
 c181: x46 <= 0
 c183: x46 >= 0
 c185: x47 <= 0
 c187: x47 >= 0
 c189: x48 <= 0
 c191: x48 >= 0
 c193: x49 <= 0
 c195: x49 >= 0
 c197: x50 <= 0
 c199: x50 >= 0
 c201: x51 <= 0
 c203: x51 >= 0
 c205: x52 <= 0
 c207: x52 >= 0
 c209: x53 <= 0
 c211: x53 >= 0
 c213: x54 <= 0
 c215: x54 >= 0
 c217: x55 <= 0
 c219: x55 >= 0
 c221: x56 <= 0
 c223: x56 >= 0
 c225: x57 <= 0
 c227: x57 >= 0
 c229: x58 <= 0
 c231: x58 >= 0
 c233: x59 <= 0
 c235: x59 >= 0
 c237: x60 <= 0
 c239: x60 >= 0
 c241: x61 <= 0
 c243: x61 >= 0
 c245: x62 <= 0
 c247: x62 >= 0
 c249: x63 <= 0
 c251: x63 >= 0
 c253: x64 <= 0
 c255: x64 >= 0
 c257: x65 <= 0
 c259: x65 >= 0
 c261: x66 <= 0
 c263: x66 >= 0
 c265: x67 <= 0
 c267: x67 >= 0
 c269: x68 <= 0
 c271: x68 >= 0
 c273: x69 <= 0
 c275: x69 >= 0
 c277: x70 <= 0
 c279: x70 >= 0
 c281: x71 <= 0
 c283: x71 >= 0
 c285: x72 <= 0
 c287: x72 >= 0
 c289: x73 <= 0
 c291: x73 >= 0
 c293: x74 <= 0
 c295: x74 >= 0
 c297: x75 <= 0
 c299: x75 >= 0
 c301: x76 <= 0
 c303: x76 >= 0
 c305: x77 <= 0
 c307: x77 >= 0
 c309: x78 <= 0
 c311: x78 >= 0
 c313: x79 <= 0
 c315: x79 >= 0
 c317: x80 <= 0
 c319: x80 >= 0
 c321: x81 <= 0
 c323: x81 >= 0
 c325: x82 <= 0
 c327: x82 >= 0
 c329: x83 <= 0
 c331: x83 >= 0
 c333: x84 <= 0
 c335: x84 >= 0
 c337: x85 <= 0
 c339: x85 >= 0
 c341: x86 <= 4
 c343: x86 >= -4
 c345: x87 <= 4
 c347: x87 >= -4
 c349: x88 <= 4
 c351: x88 >= -4
 c353: x89 <= 4
 c355: x89 >= -4
 c357: x90 <= 4
 c359: x90 >= -4
 c361: x91 <= 4
 c363: x91 >= -4
 c365: x92 <= 4
 c367: x92 >= -4
 c369: x93 <= 4
 c371: x93 >= -4
 c373: x94 <= 4
 c375: x94 >= -4
 c377: x95 <= 4
 c379: x95 >= -4
 c381: x96 <= 4
 c383: x96 >= -4
 c385: x1 + x2 + x3 + x4 + x5 + x6 + x7 + x8 + x9 + x10 + x11 + x12 + x13 + x14
       + x15 + x16 + x17 + x18 + x19 + x20 + x21 + x22 + x23 + x24 + x86 + x87
       + x88 + x89 + x90 + x91 + x92 + x93 + x94 + x95 + x96
        = 33.2250838709677
 c387: x86 <= 33.2252
 c389: x86 >= -47.2051
 c391: x86 + x87 <= 33.2252
 c393: x86 + x87 >= -47.2051
 c395: x86 + x87 + x88 <= 33.2252
 c397: x86 + x87 + x88 >= -47.2051
 c399: x86 + x87 + x88 + x89 <= 33.2252
 c401: x86 + x87 + x88 + x89 >= -47.2051
 c403: x86 + x87 + x88 + x89 + x90 <= 33.2252
 c405: x86 + x87 + x88 + x89 + x90 >= -47.2051
 c407: x86 + x87 + x88 + x89 + x90 + x91 <= 33.2252
 c409: x86 + x87 + x88 + x89 + x90 + x91 >= -47.2051
 c411: x86 + x87 + x88 + x89 + x90 + x91 + x92 <= 33.2252
 c413: x86 + x87 + x88 + x89 + x90 + x91 + x92 >= -47.2051
 c415: x86 + x87 + x88 + x89 + x90 + x91 + x92 + x93 <= 33.2252
 c417: x86 + x87 + x88 + x89 + x90 + x91 + x92 + x93 >= -47.2051
 c419: x86 + x87 + x88 + x89 + x90 + x91 + x92 + x93 + x94 <= 33.2252
 c421: x86 + x87 + x88 + x89 + x90 + x91 + x92 + x93 + x94 >= -47.2051
 c423: x86 + x87 + x88 + x89 + x90 + x91 + x92 + x93 + x94 + x95 <= 33.2252
 c425: x86 + x87 + x88 + x89 + x90 + x91 + x92 + x93 + x94 + x95 >= -47.2051
 c427: x86 + x87 + x88 + x89 + x90 + x91 + x92 + x93 + x94 + x95 + x96
       <= 33.2252
 c429: x86 + x87 + x88 + x89 + x90 + x91 + x92 + x93 + x94 + x95 + x96
       >= -47.2051
 c431: x1 + x86 + x87 + x88 + x89 + x90 + x91 + x92 + x93 + x94 + x95 + x96
       <= 33.2252
 c433: x1 + x86 + x87 + x88 + x89 + x90 + x91 + x92 + x93 + x94 + x95 + x96
       >= -47.2051
 c435: x1 + x2 + x86 + x87 + x88 + x89 + x90 + x91 + x92 + x93 + x94 + x95
       + x96 <= 33.2252
 c437: x1 + x2 + x86 + x87 + x88 + x89 + x90 + x91 + x92 + x93 + x94 + x95
       + x96 >= -47.2051
 c439: x1 + x2 + x3 + x86 + x87 + x88 + x89 + x90 + x91 + x92 + x93 + x94 + x95
       + x96 <= 33.2252
 c441: x1 + x2 + x3 + x86 + x87 + x88 + x89 + x90 + x91 + x92 + x93 + x94 + x95
       + x96 >= -47.2051
 c443: x1 + x2 + x3 + x4 + x86 + x87 + x88 + x89 + x90 + x91 + x92 + x93 + x94
       + x95 + x96 <= 33.2252
 c445: x1 + x2 + x3 + x4 + x86 + x87 + x88 + x89 + x90 + x91 + x92 + x93 + x94
       + x95 + x96 >= -47.2051
 c447: x1 + x2 + x3 + x4 + x5 + x86 + x87 + x88 + x89 + x90 + x91 + x92 + x93
       + x94 + x95 + x96 <= 33.2252
 c449: x1 + x2 + x3 + x4 + x5 + x86 + x87 + x88 + x89 + x90 + x91 + x92 + x93
       + x94 + x95 + x96 >= -47.2051
 c451: x1 + x2 + x3 + x4 + x5 + x6 + x86 + x87 + x88 + x89 + x90 + x91 + x92
       + x93 + x94 + x95 + x96 <= 33.2252
 c453: x1 + x2 + x3 + x4 + x5 + x6 + x86 + x87 + x88 + x89 + x90 + x91 + x92
       + x93 + x94 + x95 + x96 >= -47.2051
 c455: x1 + x2 + x3 + x4 + x5 + x6 + x7 + x86 + x87 + x88 + x89 + x90 + x91
       + x92 + x93 + x94 + x95 + x96 <= 33.2252
 c457: x1 + x2 + x3 + x4 + x5 + x6 + x7 + x86 + x87 + x88 + x89 + x90 + x91
       + x92 + x93 + x94 + x95 + x96 >= -47.2051
 c459: x1 + x2 + x3 + x4 + x5 + x6 + x7 + x8 + x86 + x87 + x88 + x89 + x90
       + x91 + x92 + x93 + x94 + x95 + x96 <= 33.2252
 c461: x1 + x2 + x3 + x4 + x5 + x6 + x7 + x8 + x86 + x87 + x88 + x89 + x90
       + x91 + x92 + x93 + x94 + x95 + x96 >= -47.2051
 c463: x1 + x2 + x3 + x4 + x5 + x6 + x7 + x8 + x9 + x86 + x87 + x88 + x89 + x90
       + x91 + x92 + x93 + x94 + x95 + x96 <= 33.2252
 c465: x1 + x2 + x3 + x4 + x5 + x6 + x7 + x8 + x9 + x86 + x87 + x88 + x89 + x90
       + x91 + x92 + x93 + x94 + x95 + x96 >= -47.2051
 c467: x1 + x2 + x3 + x4 + x5 + x6 + x7 + x8 + x9 + x10 + x86 + x87 + x88 + x89
       + x90 + x91 + x92 + x93 + x94 + x95 + x96 <= 33.2252
 c469: x1 + x2 + x3 + x4 + x5 + x6 + x7 + x8 + x9 + x10 + x86 + x87 + x88 + x89
       + x90 + x91 + x92 + x93 + x94 + x95 + x96 >= -47.2051
 c471: x1 + x2 + x3 + x4 + x5 + x6 + x7 + x8 + x9 + x10 + x11 + x86 + x87 + x88
       + x89 + x90 + x91 + x92 + x93 + x94 + x95 + x96 <= 33.2252
 c473: x1 + x2 + x3 + x4 + x5 + x6 + x7 + x8 + x9 + x10 + x11 + x86 + x87 + x88
       + x89 + x90 + x91 + x92 + x93 + x94 + x95 + x96 >= -47.2051
 c475: x1 + x2 + x3 + x4 + x5 + x6 + x7 + x8 + x9 + x10 + x11 + x12 + x86 + x87
       + x88 + x89 + x90 + x91 + x92 + x93 + x94 + x95 + x96 <= 33.2252
 c477: x1 + x2 + x3 + x4 + x5 + x6 + x7 + x8 + x9 + x10 + x11 + x12 + x86 + x87
       + x88 + x89 + x90 + x91 + x92 + x93 + x94 + x95 + x96 >= -47.2051
 c479: x1 + x2 + x3 + x4 + x5 + x6 + x7 + x8 + x9 + x10 + x11 + x12 + x13 + x86
       + x87 + x88 + x89 + x90 + x91 + x92 + x93 + x94 + x95 + x96 <= 33.2252
 c481: x1 + x2 + x3 + x4 + x5 + x6 + x7 + x8 + x9 + x10 + x11 + x12 + x13 + x86
       + x87 + x88 + x89 + x90 + x91 + x92 + x93 + x94 + x95 + x96 >= -47.2051
 c483: x1 + x2 + x3 + x4 + x5 + x6 + x7 + x8 + x9 + x10 + x11 + x12 + x13 + x14
       + x86 + x87 + x88 + x89 + x90 + x91 + x92 + x93 + x94 + x95 + x96
       <= 33.2252
 c485: x1 + x2 + x3 + x4 + x5 + x6 + x7 + x8 + x9 + x10 + x11 + x12 + x13 + x14
       + x86 + x87 + x88 + x89 + x90 + x91 + x92 + x93 + x94 + x95 + x96
       >= -47.2051
 c487: x1 + x2 + x3 + x4 + x5 + x6 + x7 + x8 + x9 + x10 + x11 + x12 + x13 + x14
       + x15 + x86 + x87 + x88 + x89 + x90 + x91 + x92 + x93 + x94 + x95 + x96
       <= 33.2252
 c489: x1 + x2 + x3 + x4 + x5 + x6 + x7 + x8 + x9 + x10 + x11 + x12 + x13 + x14
       + x15 + x86 + x87 + x88 + x89 + x90 + x91 + x92 + x93 + x94 + x95 + x96
       >= -47.2051
 c491: x1 + x2 + x3 + x4 + x5 + x6 + x7 + x8 + x9 + x10 + x11 + x12 + x13 + x14
       + x15 + x16 + x86 + x87 + x88 + x89 + x90 + x91 + x92 + x93 + x94 + x95
       + x96 <= 33.2252
 c493: x1 + x2 + x3 + x4 + x5 + x6 + x7 + x8 + x9 + x10 + x11 + x12 + x13 + x14
       + x15 + x16 + x86 + x87 + x88 + x89 + x90 + x91 + x92 + x93 + x94 + x95
       + x96 >= -47.2051
 c495: x1 + x2 + x3 + x4 + x5 + x6 + x7 + x8 + x9 + x10 + x11 + x12 + x13 + x14
       + x15 + x16 + x17 + x86 + x87 + x88 + x89 + x90 + x91 + x92 + x93 + x94
       + x95 + x96 <= 33.2252
 c497: x1 + x2 + x3 + x4 + x5 + x6 + x7 + x8 + x9 + x10 + x11 + x12 + x13 + x14
       + x15 + x16 + x17 + x86 + x87 + x88 + x89 + x90 + x91 + x92 + x93 + x94
       + x95 + x96 >= -47.2051
 c499: x1 + x2 + x3 + x4 + x5 + x6 + x7 + x8 + x9 + x10 + x11 + x12 + x13 + x14
       + x15 + x16 + x17 + x18 + x86 + x87 + x88 + x89 + x90 + x91 + x92 + x93
       + x94 + x95 + x96 <= 33.2252
 c501: x1 + x2 + x3 + x4 + x5 + x6 + x7 + x8 + x9 + x10 + x11 + x12 + x13 + x14
       + x15 + x16 + x17 + x18 + x86 + x87 + x88 + x89 + x90 + x91 + x92 + x93
       + x94 + x95 + x96 >= -47.2051
 c503: x1 + x2 + x3 + x4 + x5 + x6 + x7 + x8 + x9 + x10 + x11 + x12 + x13 + x14
       + x15 + x16 + x17 + x18 + x19 + x86 + x87 + x88 + x89 + x90 + x91 + x92
       + x93 + x94 + x95 + x96 <= 33.2252
 c505: x1 + x2 + x3 + x4 + x5 + x6 + x7 + x8 + x9 + x10 + x11 + x12 + x13 + x14
       + x15 + x16 + x17 + x18 + x19 + x86 + x87 + x88 + x89 + x90 + x91 + x92
       + x93 + x94 + x95 + x96 >= -47.2051
 c507: x1 + x2 + x3 + x4 + x5 + x6 + x7 + x8 + x9 + x10 + x11 + x12 + x13 + x14
       + x15 + x16 + x17 + x18 + x19 + x20 + x86 + x87 + x88 + x89 + x90 + x91
       + x92 + x93 + x94 + x95 + x96 <= 33.2252
 c509: x1 + x2 + x3 + x4 + x5 + x6 + x7 + x8 + x9 + x10 + x11 + x12 + x13 + x14
       + x15 + x16 + x17 + x18 + x19 + x20 + x86 + x87 + x88 + x89 + x90 + x91
       + x92 + x93 + x94 + x95 + x96 >= -47.2051
 c511: x1 + x2 + x3 + x4 + x5 + x6 + x7 + x8 + x9 + x10 + x11 + x12 + x13 + x14
       + x15 + x16 + x17 + x18 + x19 + x20 + x21 + x86 + x87 + x88 + x89 + x90
       + x91 + x92 + x93 + x94 + x95 + x96 <= 33.2252
 c513: x1 + x2 + x3 + x4 + x5 + x6 + x7 + x8 + x9 + x10 + x11 + x12 + x13 + x14
       + x15 + x16 + x17 + x18 + x19 + x20 + x21 + x86 + x87 + x88 + x89 + x90
       + x91 + x92 + x93 + x94 + x95 + x96 >= -47.2051
 c515: x1 + x2 + x3 + x4 + x5 + x6 + x7 + x8 + x9 + x10 + x11 + x12 + x13 + x14
       + x15 + x16 + x17 + x18 + x19 + x20 + x21 + x22 + x86 + x87 + x88 + x89
       + x90 + x91 + x92 + x93 + x94 + x95 + x96 <= 33.2252
 c517: x1 + x2 + x3 + x4 + x5 + x6 + x7 + x8 + x9 + x10 + x11 + x12 + x13 + x14
       + x15 + x16 + x17 + x18 + x19 + x20 + x21 + x22 + x86 + x87 + x88 + x89
       + x90 + x91 + x92 + x93 + x94 + x95 + x96 >= -47.2051
 c519: x1 + x2 + x3 + x4 + x5 + x6 + x7 + x8 + x9 + x10 + x11 + x12 + x13 + x14
       + x15 + x16 + x17 + x18 + x19 + x20 + x21 + x22 + x23 + x86 + x87 + x88
       + x89 + x90 + x91 + x92 + x93 + x94 + x95 + x96 <= 33.2252
 c521: x1 + x2 + x3 + x4 + x5 + x6 + x7 + x8 + x9 + x10 + x11 + x12 + x13 + x14
       + x15 + x16 + x17 + x18 + x19 + x20 + x21 + x22 + x23 + x86 + x87 + x88
       + x89 + x90 + x91 + x92 + x93 + x94 + x95 + x96 >= -47.2051
 c523: x1 + x2 + x3 + x4 + x5 + x6 + x7 + x8 + x9 + x10 + x11 + x12 + x13 + x14
       + x15 + x16 + x17 + x18 + x19 + x20 + x21 + x22 + x23 + x24 + x86 + x87
       + x88 + x89 + x90 + x91 + x92 + x93 + x94 + x95 + x96 <= 33.2252
 c525: x1 + x2 + x3 + x4 + x5 + x6 + x7 + x8 + x9 + x10 + x11 + x12 + x13 + x14
       + x15 + x16 + x17 + x18 + x19 + x20 + x21 + x22 + x23 + x24 + x86 + x87
       + x88 + x89 + x90 + x91 + x92 + x93 + x94 + x95 + x96 >= -47.2051
Bounds
      x1 >= 4.94065645841247e-324
      x2 >= 4.94065645841247e-324
      x3 >= 4.94065645841247e-324
      x4 >= 4.94065645841247e-324
      x5 >= 4.94065645841247e-324
      x6 >= 4.94065645841247e-324
      x7 >= 4.94065645841247e-324
      x8 >= 4.94065645841247e-324
      x9 >= 4.94065645841247e-324
      x10 >= 4.94065645841247e-324
      x11 >= 4.94065645841247e-324
      x12 >= 4.94065645841247e-324
      x13 >= 4.94065645841247e-324
      x14 >= 4.94065645841247e-324
      x15 >= 4.94065645841247e-324
      x16 >= 4.94065645841247e-324
      x17 >= 4.94065645841247e-324
      x18 >= 4.94065645841247e-324
      x19 >= 4.94065645841247e-324
      x20 >= 4.94065645841247e-324
      x21 >= 4.94065645841247e-324
      x22 >= 4.94065645841247e-324
      x23 >= 4.94065645841247e-324
      x24 >= 4.94065645841247e-324
      x25 >= 4.94065645841247e-324
      x26 >= 4.94065645841247e-324
      x27 >= 4.94065645841247e-324
      x28 >= 4.94065645841247e-324
      x29 >= 4.94065645841247e-324
      x30 >= 4.94065645841247e-324
      x31 >= 4.94065645841247e-324
      x32 >= 4.94065645841247e-324
      x33 >= 4.94065645841247e-324
      x34 >= 4.94065645841247e-324
      x35 >= 4.94065645841247e-324
      x36 >= 4.94065645841247e-324
      x37 >= 4.94065645841247e-324
      x38 >= 4.94065645841247e-324
      x39 >= 4.94065645841247e-324
      x40 >= 4.94065645841247e-324
      x41 >= 4.94065645841247e-324
      x42 >= 4.94065645841247e-324
      x43 >= 4.94065645841247e-324
      x44 >= 4.94065645841247e-324
      x45 >= 4.94065645841247e-324
      x46 >= 4.94065645841247e-324
      x47 >= 4.94065645841247e-324
      x48 >= 4.94065645841247e-324
      x49 >= 4.94065645841247e-324
      x50 >= 4.94065645841247e-324
      x51 >= 4.94065645841247e-324
      x52 >= 4.94065645841247e-324
      x53 >= 4.94065645841247e-324
      x54 >= 4.94065645841247e-324
      x55 >= 4.94065645841247e-324
      x56 >= 4.94065645841247e-324
      x57 >= 4.94065645841247e-324
      x58 >= 4.94065645841247e-324
      x59 >= 4.94065645841247e-324
      x60 >= 4.94065645841247e-324
      x61 >= 4.94065645841247e-324
      x62 >= 4.94065645841247e-324
      x63 >= 4.94065645841247e-324
      x64 >= 4.94065645841247e-324
      x65 >= 4.94065645841247e-324
      x66 >= 4.94065645841247e-324
      x67 >= 4.94065645841247e-324
      x68 >= 4.94065645841247e-324
      x69 >= 4.94065645841247e-324
      x70 >= 4.94065645841247e-324
      x71 >= 4.94065645841247e-324
      x72 >= 4.94065645841247e-324
      x73 >= 4.94065645841247e-324
      x74 >= 4.94065645841247e-324
      x75 >= 4.94065645841247e-324
      x76 >= 4.94065645841247e-324
      x77 >= 4.94065645841247e-324
      x78 >= 4.94065645841247e-324
      x79 >= 4.94065645841247e-324
      x80 >= 4.94065645841247e-324
      x81 >= 4.94065645841247e-324
      x82 >= 4.94065645841247e-324
      x83 >= 4.94065645841247e-324
      x84 >= 4.94065645841247e-324
      x85 >= 4.94065645841247e-324
      x86 >= 4.94065645841247e-324
      x87 >= 4.94065645841247e-324
      x88 >= 4.94065645841247e-324
      x89 >= 4.94065645841247e-324
      x90 >= 4.94065645841247e-324
      x91 >= 4.94065645841247e-324
      x92 >= 4.94065645841247e-324
      x93 >= 4.94065645841247e-324
      x94 >= 4.94065645841247e-324
      x95 >= 4.94065645841247e-324
      x96 >= 4.94065645841247e-324
      x97 = 1.4221140018
End
